(set-logic QF_S)
(declare-fun src () String)
;(declare-fun URL () String)
(declare-fun ret () String)
;(declare-fun pred () Bool)
;(declare-fun p1 () Bool)
;(assert (= p1 (str.suffixof  "_hA"  src) ) )
;(assert (= pred  (or (str.suffixof  "_ha"  src) (str.suffixof "_Ha"  src) (str.suffixof "_HA"  src) p1 ) ) )
(assert (str.suffixof  "_hA"  src) )
(assert (not (= src "") ) )
;(assert pred)
(assert (= ret src) )
(assert (str.suffixof "_ha" ret) )
;(assert (not (= src "") ) )
(check-sat)
